30	100	100	100
92	91	20
92	55	94
51	89	65
40	39	18
98	51	5
83	85	54
37	34	6
78	2	66
64	40	29
22	16	22
35	85	92
73	67	81
8	12	76
37	95	78
6	24	41
92	87	10
15	57	22
12	99	53
99	19	25
49	86	43
40	98	57
46	13	96
68	34	65
43	81	13
9	50	7
30	53	91
22	18	64
86	46	36
32	27	46
80	74	14
